% File represents an instance of a Composite Structure problem to be solved by a CP framework
% Created on 2025-03-25 14:05:14.235
T = 43;
n = 16;
m = 24;
edges = [(1, 2),
(6, 5),
(10, 9),
(13, 14),
(2, 3),
(7, 6),
(11, 10),
(15, 14),
(4, 3),
(7, 8),
(11, 12),
(15, 16),
(1, 5),
(5, 9),
(13, 9),
(2, 6),
(10, 6),
(10, 14),
(3, 7),
(11, 7),
(15, 11),
(4, 8),
(12, 8),
(16, 12)];
counts = [|7, 11, 10, 7,
|7, 11, 10, 6,
|6, 10, 10, 2,
|6, 11, 13, 2,
|5, 9, 9, 2,
|5, 9, 10, 2,
|6, 9, 10, 2,
|6, 5, 10, 2,
|5, 9, 8, 2,
|6, 11, 13, 4,
|6, 11, 14, 5,
|6, 11, 11, 3,
|6, 12, 13, 3,
|6, 11, 13, 3,
|6, 12, 16, 9,
|6, 11, 13, 7|];
